(declare-const a Real)
(declare-const b Real)
(declare-const c Real)
(assert (= (+ a b c) (+ (pow a -1) (pow b -1) (pow c -1))))
(assert (> a 0))
(assert (> b 0))
(assert (> c 0))
(assert (not (<= (+ (/ -3 16) (* (/ 27 2) (pow (+ (* 4 a) (* 4 b) (* 4 c)) -1) (pow (+ (* 3 (pow a 2)) (* 3 (pow b 2)) (* 4 (pow c 2)) (* 8 a c) (* 8 b c) (* 10 a b)) (/ -1 2)))) 0)))
(check-sat)
(get-model)
(exit)